0 0 0 0
0 1 0 0
0 2 0 0
0 3 0 0
0 4 0 5
0 5 0 11
0 6 0 11
0 7 1 14
0 8 1 5
0 9 0 17
0 10 0 11
0 11 2 20
0 12 0 17
0 13 0 12
0 14 0 19
0 15 2 13
0 16 0 13
0 17 0 19
0 18 0 21
0 19 1 15
0 20 2 14
0 21 0 23
0 22 0 27
0 23 0 28
0 24 2 12
0 25 0 21
0 26 0 25
0 27 2 21
0 28 0 28
0 29 0 32
0 30 0 30
0 31 0 33
